p cnf 35 98
a 28 23 0
e 1 2 3 4 5 6 7 8 9 10 11 12 13 14 15 16 17 18 19 20 21 22 24 25 26 27 29 30 31 32 33 34 35 0
-3 1 0
-3 -2 0
-1 2 3 0
-5 4 0
-5 -2 0
-4 2 5 0
-1 5 -6 0
1 -5 -6 0
-1 -5 6 0
1 5 6 0
6 -7 -8 0
-6 7 -8 0
6 7 8 0
-6 -7 8 0
-9 3 0
-9 8 0
-3 -8 9 0
-12 -10 0
-12 11 0
10 -11 12 0
-14 1 -15 0
14 -1 -15 0
-14 -1 15 0
14 1 15 0
-16 -13 0
-16 15 0
13 -15 16 0
-17 -2 0
-17 1 0
2 -1 17 0
16 -17 -18 0
-16 17 -18 0
16 17 18 0
-16 -17 18 0
-12 18 -19 0
12 -18 -19 0
-12 -18 19 0
12 18 19 0
22 20 0
22 -21 0
-20 21 -22 0
23 -2 0
23 -10 0
2 10 -23 0
-24 -22 0
-24 23 0
22 -23 24 0
25 -20 0
25 14 0
20 -14 -25 0
-24 25 -26 0
24 -25 -26 0
-24 -25 26 0
24 25 26 0
-19 26 -27 0
19 -26 -27 0
-19 -26 27 0
19 26 27 0
-11 -1 -28 0
11 1 -28 0
-11 1 28 0
11 -1 28 0
-29 -28 0
-29 -1 0
28 1 29 0
15 28 -30 0
-15 -28 -30 0
15 -28 30 0
-15 28 30 0
-31 29 0
-31 -30 0
-29 30 31 0
-20 10 -32 0
20 -10 -32 0
-20 -10 32 0
20 10 32 0
-31 32 -33 0
31 -32 -33 0
-31 -32 33 0
31 32 33 0
-27 33 -34 0
27 -33 -34 0
-27 -33 34 0
27 33 34 0
9 34 -35 0
-9 -34 -35 0
9 -34 35 0
-9 34 35 0
29 11 -20 27 -6 -24 -22 0
-6 -30 -4 31 11 0
24 -7 29 0
-10 32 0
24 33 27 -26 25 -11 0
29 -19 -24 0
20 33 17 10 0
24 -17 -5 -1 27 -30 0
-18 -13 28 14 30 10 -32 0
35 0
